CPXPARAM_TimeLimit                               3600
CPXPARAM_Read_DataCheck                          1
Tried aggregator 1 time.
LP Presolve eliminated 11 rows and 0 columns.
Reduced LP has 389 rows, 136 columns, and 1483 nonzeros.
Presolve time = 0.00 sec. (0.22 ticks)

Iteration log . . .
Iteration:     1   Dual objective     =            23.000000
Perturbation started.
Iteration:    51   Dual objective     =            23.000000
Iteration:   113   Dual objective     =            25.373232
Iteration:   184   Dual objective     =            27.061962
Iteration:   261   Dual objective     =            28.515194
Removing perturbation.
